peakDumbCharging = 33300; 
Machine = anon_enum(16); 
machineSpeed = [3700,3700,3700,3700,3700,3700,3700,3700,3700,3700,3700,3700,3700,3700,3700,3700]; 
machineLoad = [3700,3700,3700,3700,3700,3700,3700,3700,3700,3700,3700,3700,3700,3700,3700,3700]; 
Car = anon_enum(41); 
demandCar = [3400,10680,16121,11880,7240,16720,8320,6240,10640,5240,14080,17640,4120,17680,4680,9240,4040,29720,14960,9520,4360,13960,12320,9160,32680,24560,5880,6080,10760,14760,5120,17720,11520,1480,5080,7960,11600,5160,720,14680,2240]; 
arrivalCar = [79,72,70,70,70,68,68,67,67,65,64,63,62,60,59,59,56,54,53,50,50,49,49,48,48,47,47,47,47,46,43,43,42,41,41,41,40,39,37,36,36]; 
departureCar = [82,77,76,77,74,77,73,70,75,68,69,70,64,66,61,62,59,64,60,54,54,60,58,55,61,60,51,51,52,53,46,49,46,43,45,45,44,42,38,42,38]; 
